
Gurobi 9.1.2 (win64) logging started Tue Dec  7 13:39:30 2021

Gurobi Optimizer version 9.1.2 build v9.1.2rc0 (win64)
Thread count: 8 physical cores, 8 logical processors, using up to 8 threads
Optimize a model with 1 rows, 45 columns and 44 nonzeros
Model fingerprint: 0x2f2bf3c4
Variable types: 1 continuous, 44 integer (44 binary)
Coefficient statistics:
  Matrix range     [1e+00, 1e+01]
  Objective range  [1e+00, 1e+00]
  Bounds range     [4e+01, 4e+01]
  RHS range        [1e+01, 1e+01]
Presolve time: 0.00s
Presolved: 1 rows, 45 columns, 44 nonzeros
Variable types: 1 continuous, 44 integer (44 binary)

Root simplex log...

Iteration    Objective       Primal Inf.    Dual Inf.      Time
       0   -4.3853508e+01   2.299814e-01   0.000000e+00     14s
       3   -4.3853508e+01   0.000000e+00   0.000000e+00     14s

Root relaxation: objective -4.385351e+01, 3 iterations, 0.00 seconds

    Nodes    |    Current Node    |     Objective Bounds      |     Work
 Expl Unexpl |  Obj  Depth IntInf | Incumbent    BestBd   Gap | It/Node Time

*    0     0               0     -43.8535084  -43.85351  0.00%     -   14s

Cutting planes:
  Lazy constraints: 1

Explored 0 nodes (3 simplex iterations) in 14.42 seconds
Thread count was 8 (of 8 available processors)

Solution count 1: -43.8535 
No other solutions better than -43.8535

Optimal solution found (tolerance 1.00e-04)
Best objective -4.385350841004e+01, best bound -4.385350841004e+01, gap 0.0000%

User-callback calls 67, time in user-callback 18.30 sec
